p cnf 94 250
-2 12 33 0
2 -12 33 0
2 12 -33 0
-2 -12 -33 0
-23 19 34 0
23 -19 34 0
23 19 -34 0
-23 -19 -34 0
-6 11 35 0
6 -11 35 0
6 11 -35 0
-6 -11 -35 0
-35 16 36 0
35 -16 36 0
35 16 -36 0
-35 -16 -36 0
-9 14 37 0
9 -14 37 0
9 14 -37 0
-9 -14 -37 0
-36 31 38 0
36 -31 38 0
36 31 -38 0
-36 -31 -38 0
-8 5 39 0
8 -5 39 0
8 5 -39 0
-8 -5 -39 0
-25 17 40 0
25 -17 40 0
25 17 -40 0
-25 -17 -40 0
-15 27 41 0
15 -27 41 0
15 27 -41 0
-15 -27 -41 0
-22 24 42 0
22 -24 42 0
22 24 -42 0
-22 -24 -42 0
-39 26 43 0
39 -26 43 0
39 26 -43 0
-39 -26 -43 0
-21 20 44 0
21 -20 44 0
21 20 -44 0
-21 -20 -44 0
-41 38 45 0
41 -38 45 0
41 38 -45 0
-41 -38 -45 0
-37 3 46 0
37 -3 46 0
37 3 -46 0
-37 -3 -46 0
-29 42 47 0
29 -42 47 0
29 42 -47 0
-29 -42 -47 0
-30 7 48 0
30 -7 48 0
30 7 -48 0
-30 -7 -48 0
-28 4 49 0
28 -4 49 0
28 4 -49 0
-28 -4 -49 0
-13 45 50 0
13 -45 50 0
13 45 -50 0
-13 -45 -50 0
-40 10 51 0
40 -10 51 0
40 10 -51 0
-40 -10 -51 0
-33 32 52 0
33 -32 52 0
33 32 -52 0
-33 -32 -52 0
-51 43 53 0
51 -43 53 0
51 43 -53 0
-51 -43 -53 0
-44 48 54 0
44 -48 54 0
44 48 -54 0
-44 -48 -54 0
-34 1 55 0
34 -1 55 0
34 1 -55 0
-34 -1 -55 0
-55 49 56 0
55 -49 56 0
55 49 -56 0
-55 -49 -56 0
-53 18 57 0
53 -18 57 0
53 18 -57 0
-53 -18 -57 0
-57 47 58 0
57 -47 58 0
57 47 -58 0
-57 -47 -58 0
-58 54 59 0
58 -54 59 0
58 54 -59 0
-58 -54 -59 0
-46 56 60 0
46 -56 60 0
46 56 -60 0
-46 -56 -60 0
-50 52 61 0
50 -52 61 0
50 52 -61 0
-50 -52 -61 0
-61 60 62 0
61 -60 62 0
61 60 -62 0
-61 -60 -62 0
-59 62 63 0
59 -62 63 0
59 62 -63 0
-59 -62 -63 0
-14 28 64 0
14 -28 64 0
14 28 -64 0
-14 -28 -64 0
-18 26 65 0
18 -26 65 0
18 26 -65 0
-18 -26 -65 0
-29 22 66 0
29 -22 66 0
29 22 -66 0
-29 -22 -66 0
-11 30 67 0
11 -30 67 0
11 30 -67 0
-11 -30 -67 0
-21 67 68 0
21 -67 68 0
21 67 -68 0
-21 -67 -68 0
-25 6 69 0
25 -6 69 0
25 6 -69 0
-25 -6 -69 0
-4 27 70 0
4 -27 70 0
4 27 -70 0
-4 -27 -70 0
-31 13 71 0
31 -13 71 0
31 13 -71 0
-31 -13 -71 0
-23 69 72 0
23 -69 72 0
23 69 -72 0
-23 -69 -72 0
-2 64 73 0
2 -64 73 0
2 64 -73 0
-2 -64 -73 0
-70 65 74 0
70 -65 74 0
70 65 -74 0
-70 -65 -74 0
-71 74 75 0
71 -74 75 0
71 74 -75 0
-71 -74 -75 0
-1 9 76 0
1 -9 76 0
1 9 -76 0
-1 -9 -76 0
-32 68 77 0
32 -68 77 0
32 68 -77 0
-32 -68 -77 0
-24 12 78 0
24 -12 78 0
24 12 -78 0
-24 -12 -78 0
-73 10 79 0
73 -10 79 0
73 10 -79 0
-73 -10 -79 0
-17 15 80 0
17 -15 80 0
17 15 -80 0
-17 -15 -80 0
-72 66 81 0
72 -66 81 0
72 66 -81 0
-72 -66 -81 0
-75 3 82 0
75 -3 82 0
75 3 -82 0
-75 -3 -82 0
-19 5 83 0
19 -5 83 0
19 5 -83 0
-19 -5 -83 0
-79 7 84 0
79 -7 84 0
79 7 -84 0
-79 -7 -84 0
-78 82 85 0
78 -82 85 0
78 82 -85 0
-78 -82 -85 0
-84 83 86 0
84 -83 86 0
84 83 -86 0
-84 -83 -86 0
-16 76 87 0
16 -76 87 0
16 76 -87 0
-16 -76 -87 0
-80 86 88 0
80 -86 88 0
80 86 -88 0
-80 -86 -88 0
-87 20 89 0
87 -20 89 0
87 20 -89 0
-87 -20 -89 0
-89 88 90 0
89 -88 90 0
89 88 -90 0
-89 -88 -90 0
-8 90 91 0
8 -90 91 0
8 90 -91 0
-8 -90 -91 0
-81 85 92 0
81 -85 92 0
81 85 -92 0
-81 -85 -92 0
-92 77 93 0
92 -77 93 0
92 77 -93 0
-92 -77 -93 0
-93 91 94 0
93 -91 94 0
93 91 -94 0
-93 -91 -94 0
-63 -94 0
63 94 0
